Gurobi 12.0.1:   lim:time = 500
  mip:bestbound = 1
Set parameter LogToConsole to value 1
  tech:outlev = 1
Set parameter InfUnbdInfo to value 1
Gurobi Optimizer version 12.0.1 build v12.0.1rc0 (win64 - Windows 11.0 (26100.2))

CPU model: Intel(R) Core(TM) i7-10700 CPU @ 2.90GHz, instruction set [SSE2|AVX|AVX2]
Thread count: 8 physical cores, 16 logical processors, using up to 16 threads

Non-default parameters:
TimeLimit  500
InfUnbdInfo  1

Optimize a model with 308 rows, 468 columns and 2425 nonzeros
Model fingerprint: 0x43427390
Model has 3 quadratic constraints
Variable types: 24 continuous, 444 integer (0 binary)
Coefficient statistics:
  Matrix range     [1e+00, 1e+05]
  QMatrix range    [1e+00, 1e+00]
  QLMatrix range   [1e+00, 2e+01]
  Objective range  [7e+00, 3e+02]
  Bounds range     [1e+00, 9e+01]
  RHS range        [1e+00, 1e+05]
  QRHS range       [1e+02, 1e+02]
Presolve removed 25 rows and 41 columns
Presolve time: 0.01s
Presolved: 457 rows, 568 columns, 3066 nonzeros
Variable types: 15 continuous, 553 integer (553 binary)

Root relaxation: objective 6.108019e+02, 44 iterations, 0.00 seconds (0.00 work units)

    Nodes    |    Current Node    |     Objective Bounds      |     Work
 Expl Unexpl |  Obj  Depth IntInf | Incumbent    BestBd   Gap | It/Node Time

     0     0  610.80194    0   17          -  610.80194      -     -    0s
H    0     0                    1547.4000000  610.80194  60.5%     -    0s
H    0     0                    1318.0200000  610.80194  53.7%     -    0s
     0     0  615.78277    0   20 1318.02000  615.78277  53.3%     -    0s
     0     0  625.98000    0   20 1318.02000  625.98000  52.5%     -    0s
     0     0  625.98000    0   16 1318.02000  625.98000  52.5%     -    0s
H    0     0                    1278.0300000  625.98000  51.0%     -    0s
     0     0  625.98000    0   16 1278.03000  625.98000  51.0%     -    0s
     0     0  625.98000    0   17 1278.03000  625.98000  51.0%     -    0s
H    0     0                    1270.4700000  625.98000  50.7%     -    0s
H    0     0                    1224.6900000  625.98000  48.9%     -    0s
H    0     0                    1155.3000000  625.98000  45.8%     -    0s
H    0     0                     951.8700000  625.98000  34.2%     -    0s
     0     0  625.98000    0   17  951.87000  625.98000  34.2%     -    0s
     0     0  625.98000    0   16  951.87000  625.98000  34.2%     -    0s
     0     2  625.98000    0   16  951.87000  625.98000  34.2%     -    0s
*  411   274              18     891.6900000  626.03871  29.8%   7.2    0s
H  462   276                     869.5800000  626.03871  28.0%   7.2    0s
*  617   348              17     866.3100000  657.70385  24.1%   7.1    0s
*  632   348              14     856.4400000  657.70385  23.2%   7.1    0s
*  644   348              17     840.3300000  657.70385  21.7%   7.1    0s
*  736   389              17     796.0200000  657.80537  17.4%   7.2    0s
*  830   393              18     794.5800000  657.80537  17.2%   7.2    0s
*  844   393               8     791.2500000  657.80537  16.9%   7.2    0s
*  955   393              18     760.6200000  657.88224  13.5%   7.2    0s

Cutting planes:
  Learned: 7
  Gomory: 3
  Cover: 1
  Implied bound: 21
  MIR: 2
  Inf proof: 18
  RLT: 3

Explored 1721 nodes (11575 simplex iterations) in 0.38 seconds (0.29 work units)
Thread count was 16 (of 16 available processors)

Solution count 10: 760.62 791.25 794.58 ... 951.87

Optimal solution found (tolerance 1.00e-04)
Best objective 7.606200000000e+02, best bound 7.606200000000e+02, gap 0.0000%

AMPL MP initial flat model has 468 variables (0 integer, 444 binary);
Objectives: 1 linear; 
Constraints:  308 linear; 3 quadratic;

AMPL MP final model has 468 variables (0 integer, 444 binary);
Objectives: 1 linear; 
Constraints:  308 linear; 3 quadratic;


-----RESULTS INFO-----
running_time:  0.437
TC.best_bound:  760.62
TC:  760.6200000000001
MIP Gap (%):  1.4946601157163368e-14
=== Vehicle Routes ===
Vehicle 1: 0 → 4
Vehicle 1: 1 → 2
Vehicle 1: 2 → 14
Vehicle 1: 3 → 16
Vehicle 1: 4 → 12
Vehicle 1: 8 → 18
Vehicle 1: 12 → 3
Vehicle 1: 14 → 8
Vehicle 1: 16 → 1
Vehicle 2: 0 → 18
Vehicle 3: 0 → 18

=== Full Vehicle Routes ===
Vehicle 1: 0 → 4 → 12 → 3 → 16 → 1 → 2 → 14 → 8 → 0 (89<100)
Vehicle 2: 0 → 0 (0<100)
Vehicle 3: 0 → 0 (0<100)
Arc used by MRT line: y variables:
Customer assigment to PL: u variables:
5 14
6 16
7 12
Node is served by regular vehicle: g variables:
1
2
3
4
8
16
12
14
Customer assigment to Home delivery: gm variables:
1
2
3
4
8
Node total demands: ntd variables:
1 8 1
2 6 1
3 2 1
4 8 1
7 0 0
8 24 1
15 0 0
16 1 1
17 0 0
9 0 0
10 0 0
11 0 0
12 24 1
13 0 0
14 16 1
Customer's demand delivered to PL: l variables:
5
6
7
